97 97
9 68
26 32
44 14
17 97
5 48
18 60
9 74
41 3
46 51
15 64
7 89
32 93
23 47
13 30
8 58
19 52
27 95
46 18
43 46
22 56
36 78
35 77
44 62
4 23
47 4
10 84
30 36
11 76
28 19
36 80
31 83
12 12
37 87
21 66
15 27
17 44
37 2
32 49
20 26
19 5
11 57
3 9
29 15
39 90
39 6
30 54
7 55
13 41
18 88
14 38
34 31
23 37
45 63
48 50
34 81
25 7
40 17
24 91
6 24
21 22
10 42
24 13
29 67
12 35
33 79
42 94
40 8
1 61
8 29
38 72
33 53
45 69
27 71
35 1
5 25
20 34
6 75
38 96
43 70
1 39
47 33
14 65
25 10
1 85
48 20
28 73
41 82
16 43
2 45
26 11
42 59
16 40
22 86
31 16
4 92
2 21
3 28
